NAME /Users/henri/Research/solvers/instances/idol-instances/robust/collection/spp_dkp_Lefebvre_et_al_2026/shortest_path_5_9/uncertainty_sets/discrete_knapsack
ROWS
 N  OBJ
 L  primal_lower
COLUMNS
    MARKER    'MARKER'                 'INTORG'
    y[0,2]     OBJ        0
    y[0,2]     primal_lower -4.14
    y[0,3]     OBJ        0
    y[0,3]     primal_lower -0.27
    y[0,4]     OBJ        0
    y[0,4]     primal_lower -2.1
    y[1,2]     OBJ        0
    y[1,2]     primal_lower -3.94
    y[1,3]     OBJ        0
    y[1,3]     primal_lower -1.74
    y[2,0]     OBJ        0
    y[2,0]     primal_lower -5.81
    y[2,1]     OBJ        0
    y[2,1]     primal_lower -0.97
    y[2,3]     OBJ        0
    y[2,3]     primal_lower -2.38
    y[2,4]     OBJ        0
    y[2,4]     primal_lower -3.61
    y[3,0]     OBJ        0
    y[3,0]     primal_lower -2.99
    y[3,1]     OBJ        0
    y[3,1]     primal_lower -1.07
    y[3,2]     OBJ        0
    y[3,2]     primal_lower -1.34
    y[3,4]     OBJ        0
    y[3,4]     primal_lower -3.96
    y[4,0]     OBJ        0
    y[4,0]     primal_lower -1.53
    y[4,2]     OBJ        0
    y[4,2]     primal_lower -2.51
    y[4,3]     OBJ        0
    y[4,3]     primal_lower -0.29
    u[0,2]     OBJ        0
    u[0,2]     primal_lower 6
    u[0,3]     OBJ        0
    u[0,3]     primal_lower 63
    u[0,4]     OBJ        0
    u[0,4]     primal_lower 43
    u[1,2]     OBJ        0
    u[1,2]     primal_lower 43
    u[1,3]     OBJ        0
    u[1,3]     primal_lower 45
    u[2,0]     OBJ        0
    u[2,0]     primal_lower 77
    u[2,1]     OBJ        0
    u[2,1]     primal_lower 26
    u[2,3]     OBJ        0
    u[2,3]     primal_lower 13
    u[2,4]     OBJ        0
    u[2,4]     primal_lower 27
    u[3,0]     OBJ        0
    u[3,0]     primal_lower 46
    u[3,1]     OBJ        0
    u[3,1]     primal_lower 96
    u[3,2]     OBJ        0
    u[3,2]     primal_lower 10
    u[3,4]     OBJ        0
    u[3,4]     primal_lower 16
    u[4,0]     OBJ        0
    u[4,0]     primal_lower 62
    u[4,2]     OBJ        0
    u[4,2]     primal_lower 98
    u[4,3]     OBJ        0
    u[4,3]     primal_lower 76
    MARKER    'MARKER'                 'INTEND'
RHS
    RHS       primal_lower 98
BOUNDS
 LI BND       y[0,2]     0
 UI BND       y[0,2]     1
 LI BND       y[0,3]     0
 UI BND       y[0,3]     1
 LI BND       y[0,4]     0
 UI BND       y[0,4]     1
 LI BND       y[1,2]     0
 UI BND       y[1,2]     1
 LI BND       y[1,3]     0
 UI BND       y[1,3]     1
 LI BND       y[2,0]     0
 UI BND       y[2,0]     1
 LI BND       y[2,1]     0
 UI BND       y[2,1]     1
 LI BND       y[2,3]     0
 UI BND       y[2,3]     1
 LI BND       y[2,4]     0
 UI BND       y[2,4]     1
 LI BND       y[3,0]     0
 UI BND       y[3,0]     1
 LI BND       y[3,1]     0
 UI BND       y[3,1]     1
 LI BND       y[3,2]     0
 UI BND       y[3,2]     1
 LI BND       y[3,4]     0
 UI BND       y[3,4]     1
 LI BND       y[4,0]     0
 UI BND       y[4,0]     1
 LI BND       y[4,2]     0
 UI BND       y[4,2]     1
 LI BND       y[4,3]     0
 UI BND       y[4,3]     1
 LI BND       u[0,2]     0
 UI BND       u[0,2]     1
 LI BND       u[0,3]     0
 UI BND       u[0,3]     1
 LI BND       u[0,4]     0
 UI BND       u[0,4]     1
 LI BND       u[1,2]     0
 UI BND       u[1,2]     1
 LI BND       u[1,3]     0
 UI BND       u[1,3]     1
 LI BND       u[2,0]     0
 UI BND       u[2,0]     1
 LI BND       u[2,1]     0
 UI BND       u[2,1]     1
 LI BND       u[2,3]     0
 UI BND       u[2,3]     1
 LI BND       u[2,4]     0
 UI BND       u[2,4]     1
 LI BND       u[3,0]     0
 UI BND       u[3,0]     1
 LI BND       u[3,1]     0
 UI BND       u[3,1]     1
 LI BND       u[3,2]     0
 UI BND       u[3,2]     1
 LI BND       u[3,4]     0
 UI BND       u[3,4]     1
 LI BND       u[4,0]     0
 UI BND       u[4,0]     1
 LI BND       u[4,2]     0
 UI BND       u[4,2]     1
 LI BND       u[4,3]     0
 UI BND       u[4,3]     1
ENDATA
